--- Job mrp2.gms Start 12/13/18 10:32:24 24.7.4 r58773 LEX-LEG x86 64bit/Linux
GAMS 24.7.4   Copyright (C) 1987-2016 GAMS Development. All rights reserved
Licensee: Remigijus Paulavicius, Single User License     S170731:0859AO-LNX
          Imperial College London, Dept. of Chemical Engineering    DC13449
          License for teaching and research at degree granting institutions
          remigijus.paulavicius@imperial.ac.uk                             
--- Starting compilation
--- mrp2.gms(114) 3 Mb
--- Starting execution: elapsed 0:00:00.002
--- mrp2.gms(111) 4 Mb
--- Generating MIP model mrp
--- mrp2.gms(112) 4 Mb
---   119 rows  81 columns  419 non-zeroes
---   40 discrete-columns
--- Executing CONVERT: elapsed 0:00:00.005

Convert 2.0      24.7.4 r58773 Released Sep 19, 2016 LEG x86 64bit/Linux      

--- Using Option File
Reading parameter(s) from "/home/renigijus/gams/opt-mod-lib/gamslib/mrp2/convert.opt"
>>  pyomo mrp2-scalar.py
Finished reading from "/home/renigijus/gams/opt-mod-lib/gamslib/mrp2/convert.opt"
--- Writing Pyomo     : mrp2-scalar.py

--- Restarting execution
--- mrp2.gms(112) 2 Mb
--- Reading solution for model mrp
--- Generating LP model mrp2
--- mrp2.gms(113) 3 Mb
---   55 rows  41 columns  291 non-zeroes
--- Executing CPLEX: elapsed 0:00:00.017

IBM ILOG CPLEX   24.7.4 r58773 Released Sep 19, 2016 LEG x86 64bit/Linux      
Cplex 12.6.3.0

*** Error Cannot open parameter file "/home/renigijus/gams/opt-mod-lib/gamslib/mrp2/cplex.opt"
*** Error Error code = 2; No such file or directory
Reading data...
Starting Cplex...
Space for names approximately 0.00 Mb
Use option 'names no' to turn use of names off
Tried aggregator 1 time.
LP Presolve eliminated 24 rows and 20 columns.
Reduced LP has 31 rows, 21 columns, and 168 nonzeros.
Presolve time = 0.00 sec. (0.04 ticks)

Iteration log . . .
Iteration:     1   Dual objective     =           330.000000
LP status(1): optimal
Cplex Time: 0.00sec (det. 0.09 ticks)

Optimal solution found.
Objective :         530.000000

--- Restarting execution
--- mrp2.gms(113) 2 Mb
--- Reading solution for model mrp2
--- Generating MIP model mrp2l
--- mrp2.gms(114) 3 Mb
---   135 rows  81 columns  451 non-zeroes
---   40 discrete-columns
--- Executing CONVERT: elapsed 0:00:00.035

Convert 2.0      24.7.4 r58773 Released Sep 19, 2016 LEG x86 64bit/Linux      

--- Using Option File
Reading parameter(s) from "/home/renigijus/gams/opt-mod-lib/gamslib/mrp2/convert.opt"
>>  pyomo mrp2-scalar.py
Finished reading from "/home/renigijus/gams/opt-mod-lib/gamslib/mrp2/convert.opt"
--- Writing Pyomo     : mrp2-scalar.py

--- Restarting execution
--- mrp2.gms(114) 2 Mb
--- Reading solution for model mrp2l
*** Status: Normal completion
--- Job mrp2.gms Stop 12/13/18 10:32:24 elapsed 0:00:00.048
